\ LP format - for model browsing. Use MPS format to capture full model detail.
Minimize
  500 gshed(ng101,s1,t1) + 500 gshed(ng102,s1,t1) + 1.03 gprodUp(gw1,s1,t1)
   - 0.98 gprodDn(gw1,s1,t1) + 1.545 gprodUp(gw2,s1,t1)
   - 1.47 gprodDn(gw2,s1,t1) + 2.06 gprodUp(gw3,s1,t1)
   - 1.96 gprodDn(gw3,s1,t1) + 500 gshed(ng101,s1,t2)
   + 500 gshed(ng102,s1,t2) + 1.03 gprodUp(gw1,s1,t2)
   - 0.98 gprodDn(gw1,s1,t2) + 1.545 gprodUp(gw2,s1,t2)
   - 1.47 gprodDn(gw2,s1,t2) + 2.06 gprodUp(gw3,s1,t2)
   - 1.96 gprodDn(gw3,s1,t2) + 500 gshed(ng101,s1,t3)
   + 500 gshed(ng102,s1,t3) + 1.03 gprodUp(gw1,s1,t3)
   - 0.98 gprodDn(gw1,s1,t3) + 1.545 gprodUp(gw2,s1,t3)
   - 1.47 gprodDn(gw2,s1,t3) + 2.06 gprodUp(gw3,s1,t3)
   - 1.96 gprodDn(gw3,s1,t3) + 500 gshed(ng101,s1,t4)
   + 500 gshed(ng102,s1,t4) + 1.03 gprodUp(gw1,s1,t4)
   - 0.98 gprodDn(gw1,s1,t4) + 1.545 gprodUp(gw2,s1,t4)
   - 1.47 gprodDn(gw2,s1,t4) + 2.06 gprodUp(gw3,s1,t4)
   - 1.96 gprodDn(gw3,s1,t4) + 500 gshed(ng101,s2,t1)
   + 500 gshed(ng102,s2,t1) + 1.03 gprodUp(gw1,s2,t1)
   - 0.98 gprodDn(gw1,s2,t1) + 1.545 gprodUp(gw2,s2,t1)
   - 1.47 gprodDn(gw2,s2,t1) + 2.06 gprodUp(gw3,s2,t1)
   - 1.96 gprodDn(gw3,s2,t1) + 500 gshed(ng101,s2,t2)
   + 500 gshed(ng102,s2,t2) + 1.03 gprodUp(gw1,s2,t2)
   - 0.98 gprodDn(gw1,s2,t2) + 1.545 gprodUp(gw2,s2,t2)
   - 1.47 gprodDn(gw2,s2,t2) + 2.06 gprodUp(gw3,s2,t2)
   - 1.96 gprodDn(gw3,s2,t2) + 500 gshed(ng101,s2,t3)
   + 500 gshed(ng102,s2,t3) + 1.03 gprodUp(gw1,s2,t3)
   - 0.98 gprodDn(gw1,s2,t3) + 1.545 gprodUp(gw2,s2,t3)
   - 1.47 gprodDn(gw2,s2,t3) + 2.06 gprodUp(gw3,s2,t3)
   - 1.96 gprodDn(gw3,s2,t3) + 500 gshed(ng101,s2,t4)
   + 500 gshed(ng102,s2,t4) + 1.03 gprodUp(gw1,s2,t4)
   - 0.98 gprodDn(gw1,s2,t4) + 1.545 gprodUp(gw2,s2,t4)
   - 1.47 gprodDn(gw2,s2,t4) + 2.06 gprodUp(gw3,s2,t4)
   - 1.96 gprodDn(gw3,s2,t4)
Subject To
 gas_balance_rt(ng101,s1,t1): gshed(ng101,s1,t1)
   - qin_sr_rt(('ng101','ng102'),s1,t1) + gprodUp(gw1,s1,t1)
   - gprodDn(gw1,s1,t1) + gprodUp(gw2,s1,t1) - gprodDn(gw2,s1,t1)
   + gprodUp(gw3,s1,t1) - gprodDn(gw3,s1,t1) = -400
 gas_balance_rt(ng101,s1,t2): gshed(ng101,s1,t2)
   - qin_sr_rt(('ng101','ng102'),s1,t2) + gprodUp(gw1,s1,t2)
   - gprodDn(gw1,s1,t2) + gprodUp(gw2,s1,t2) - gprodDn(gw2,s1,t2)
   + gprodUp(gw3,s1,t2) - gprodDn(gw3,s1,t2) = -400
 gas_balance_rt(ng101,s1,t3): gshed(ng101,s1,t3)
   - qin_sr_rt(('ng101','ng102'),s1,t3) + gprodUp(gw1,s1,t3)
   - gprodDn(gw1,s1,t3) + gprodUp(gw2,s1,t3) - gprodDn(gw2,s1,t3)
   + gprodUp(gw3,s1,t3) - gprodDn(gw3,s1,t3) = -400
 gas_balance_rt(ng101,s1,t4): gshed(ng101,s1,t4)
   - qin_sr_rt(('ng101','ng102'),s1,t4) + gprodUp(gw1,s1,t4)
   - gprodDn(gw1,s1,t4) + gprodUp(gw2,s1,t4) - gprodDn(gw2,s1,t4)
   + gprodUp(gw3,s1,t4) - gprodDn(gw3,s1,t4) = -428.28427128
 gas_balance_rt(ng102,s1,t1): gshed(ng102,s1,t1)
   + qout_sr_rt(('ng101','ng102'),s1,t1) = 280
 gas_balance_rt(ng102,s1,t2): gshed(ng102,s1,t2)
   + qout_sr_rt(('ng101','ng102'),s1,t2) = 240
 gas_balance_rt(ng102,s1,t3): gshed(ng102,s1,t3)
   + qout_sr_rt(('ng101','ng102'),s1,t3) = 392
 gas_balance_rt(ng102,s1,t4): gshed(ng102,s1,t4)
   + qout_sr_rt(('ng101','ng102'),s1,t4) = 395.28181928
 gas_balance_rt(ng101,s2,t1): gshed(ng101,s2,t1)
   - qin_sr_rt(('ng101','ng102'),s2,t1) + gprodUp(gw1,s2,t1)
   - gprodDn(gw1,s2,t1) + gprodUp(gw2,s2,t1) - gprodDn(gw2,s2,t1)
   + gprodUp(gw3,s2,t1) - gprodDn(gw3,s2,t1) = -400
 gas_balance_rt(ng101,s2,t2): gshed(ng101,s2,t2)
   - qin_sr_rt(('ng101','ng102'),s2,t2) + gprodUp(gw1,s2,t2)
   - gprodDn(gw1,s2,t2) + gprodUp(gw2,s2,t2) - gprodDn(gw2,s2,t2)
   + gprodUp(gw3,s2,t2) - gprodDn(gw3,s2,t2) = -400
 gas_balance_rt(ng101,s2,t3): gshed(ng101,s2,t3)
   - qin_sr_rt(('ng101','ng102'),s2,t3) + gprodUp(gw1,s2,t3)
   - gprodDn(gw1,s2,t3) + gprodUp(gw2,s2,t3) - gprodDn(gw2,s2,t3)
   + gprodUp(gw3,s2,t3) - gprodDn(gw3,s2,t3) = -400
 gas_balance_rt(ng101,s2,t4): gshed(ng101,s2,t4)
   - qin_sr_rt(('ng101','ng102'),s2,t4) + gprodUp(gw1,s2,t4)
   - gprodDn(gw1,s2,t4) + gprodUp(gw2,s2,t4) - gprodDn(gw2,s2,t4)
   + gprodUp(gw3,s2,t4) - gprodDn(gw3,s2,t4) = -428.28427128
 gas_balance_rt(ng102,s2,t1): gshed(ng102,s2,t1)
   + qout_sr_rt(('ng101','ng102'),s2,t1) = 280
 gas_balance_rt(ng102,s2,t2): gshed(ng102,s2,t2)
   + qout_sr_rt(('ng101','ng102'),s2,t2) = 240
 gas_balance_rt(ng102,s2,t3): gshed(ng102,s2,t3)
   + qout_sr_rt(('ng101','ng102'),s2,t3) = 392
 gas_balance_rt(ng102,s2,t4): gshed(ng102,s2,t4)
   + qout_sr_rt(('ng101','ng102'),s2,t4) = 155.08556008
 gflow_sr_io_rt(('ng101','ng102'),s1,t1):
   - gflow_sr_rt(('ng101','ng102'),s1,t1)
   + 0.5 qin_sr_rt(('ng101','ng102'),s1,t1)
   + 0.5 qout_sr_rt(('ng101','ng102'),s1,t1) = 0
 gflow_sr_limit_rt(('ng101','ng102'),s1,t1):
   gflow_sr_rt(('ng101','ng102'),s1,t1) <= 10000
 gflow_sr_io_rt(('ng101','ng102'),s2,t1):
   - gflow_sr_rt(('ng101','ng102'),s2,t1)
   + 0.5 qin_sr_rt(('ng101','ng102'),s2,t1)
   + 0.5 qout_sr_rt(('ng101','ng102'),s2,t1) = 0
 gflow_sr_limit_rt(('ng101','ng102'),s2,t1):
   gflow_sr_rt(('ng101','ng102'),s2,t1) <= 10000
 gflow_sr_io_rt(('ng101','ng102'),s1,t2):
   - gflow_sr_rt(('ng101','ng102'),s1,t2)
   + 0.5 qin_sr_rt(('ng101','ng102'),s1,t2)
   + 0.5 qout_sr_rt(('ng101','ng102'),s1,t2) = 0
 gflow_sr_limit_rt(('ng101','ng102'),s1,t2):
   gflow_sr_rt(('ng101','ng102'),s1,t2) <= 10000
 gflow_sr_io_rt(('ng101','ng102'),s2,t2):
   - gflow_sr_rt(('ng101','ng102'),s2,t2)
   + 0.5 qin_sr_rt(('ng101','ng102'),s2,t2)
   + 0.5 qout_sr_rt(('ng101','ng102'),s2,t2) = 0
 gflow_sr_limit_rt(('ng101','ng102'),s2,t2):
   gflow_sr_rt(('ng101','ng102'),s2,t2) <= 10000
 gflow_sr_io_rt(('ng101','ng102'),s1,t3):
   - gflow_sr_rt(('ng101','ng102'),s1,t3)
   + 0.5 qin_sr_rt(('ng101','ng102'),s1,t3)
   + 0.5 qout_sr_rt(('ng101','ng102'),s1,t3) = 0
 gflow_sr_limit_rt(('ng101','ng102'),s1,t3):
   gflow_sr_rt(('ng101','ng102'),s1,t3) <= 10000
 gflow_sr_io_rt(('ng101','ng102'),s2,t3):
   - gflow_sr_rt(('ng101','ng102'),s2,t3)
   + 0.5 qin_sr_rt(('ng101','ng102'),s2,t3)
   + 0.5 qout_sr_rt(('ng101','ng102'),s2,t3) = 0
 gflow_sr_limit_rt(('ng101','ng102'),s2,t3):
   gflow_sr_rt(('ng101','ng102'),s2,t3) <= 10000
 gflow_sr_io_rt(('ng101','ng102'),s1,t4):
   - gflow_sr_rt(('ng101','ng102'),s1,t4)
   + 0.5 qin_sr_rt(('ng101','ng102'),s1,t4)
   + 0.5 qout_sr_rt(('ng101','ng102'),s1,t4) = 0
 gflow_sr_limit_rt(('ng101','ng102'),s1,t4):
   gflow_sr_rt(('ng101','ng102'),s1,t4) <= 10000
 gflow_sr_io_rt(('ng101','ng102'),s2,t4):
   - gflow_sr_rt(('ng101','ng102'),s2,t4)
   + 0.5 qin_sr_rt(('ng101','ng102'),s2,t4)
   + 0.5 qout_sr_rt(('ng101','ng102'),s2,t4) = 0
 gflow_sr_limit_rt(('ng101','ng102'),s2,t4):
   gflow_sr_rt(('ng101','ng102'),s2,t4) <= 10000
 gprodUp_max(gw1,s1,t1): gprodUp(gw1,s1,t1) <= 0
 gprodDn_max(gw1,s1,t1): gprodDn(gw1,s1,t1) <= 240
 gprodUp_max(gw1,s1,t2): gprodUp(gw1,s1,t2) <= 0
 gprodDn_max(gw1,s1,t2): gprodDn(gw1,s1,t2) <= 240
 gprodUp_max(gw1,s1,t3): gprodUp(gw1,s1,t3) <= 0
 gprodDn_max(gw1,s1,t3): gprodDn(gw1,s1,t3) <= 240
 gprodUp_max(gw1,s1,t4): gprodUp(gw1,s1,t4) <= 0
 gprodDn_max(gw1,s1,t4): gprodDn(gw1,s1,t4) <= 240
 gprodUp_max(gw1,s2,t1): gprodUp(gw1,s2,t1) <= 0
 gprodDn_max(gw1,s2,t1): gprodDn(gw1,s2,t1) <= 240
 gprodUp_max(gw1,s2,t2): gprodUp(gw1,s2,t2) <= 0
 gprodDn_max(gw1,s2,t2): gprodDn(gw1,s2,t2) <= 240
 gprodUp_max(gw1,s2,t3): gprodUp(gw1,s2,t3) <= 0
 gprodDn_max(gw1,s2,t3): gprodDn(gw1,s2,t3) <= 240
 gprodUp_max(gw1,s2,t4): gprodUp(gw1,s2,t4) <= 0
 gprodDn_max(gw1,s2,t4): gprodDn(gw1,s2,t4) <= 240
 gprodUp_max(gw2,s1,t1): gprodUp(gw2,s1,t1) <= 0
 gprodDn_max(gw2,s1,t1): gprodDn(gw2,s1,t1) <= 144
 gprodUp_max(gw2,s1,t2): gprodUp(gw2,s1,t2) <= 0
 gprodDn_max(gw2,s1,t2): gprodDn(gw2,s1,t2) <= 144
 gprodUp_max(gw2,s1,t3): gprodUp(gw2,s1,t3) <= 0
 gprodDn_max(gw2,s1,t3): gprodDn(gw2,s1,t3) <= 144
 gprodUp_max(gw2,s1,t4): gprodUp(gw2,s1,t4) <= 0
 gprodDn_max(gw2,s1,t4): gprodDn(gw2,s1,t4) <= 144
 gprodUp_max(gw2,s2,t1): gprodUp(gw2,s2,t1) <= 0
 gprodDn_max(gw2,s2,t1): gprodDn(gw2,s2,t1) <= 144
 gprodUp_max(gw2,s2,t2): gprodUp(gw2,s2,t2) <= 0
 gprodDn_max(gw2,s2,t2): gprodDn(gw2,s2,t2) <= 144
 gprodUp_max(gw2,s2,t3): gprodUp(gw2,s2,t3) <= 0
 gprodDn_max(gw2,s2,t3): gprodDn(gw2,s2,t3) <= 144
 gprodUp_max(gw2,s2,t4): gprodUp(gw2,s2,t4) <= 0
 gprodDn_max(gw2,s2,t4): gprodDn(gw2,s2,t4) <= 144
 gprodUp_max(gw3,s1,t1): gprodUp(gw3,s1,t1) <= 2984
 gprodDn_max(gw3,s1,t1): gprodDn(gw3,s1,t1) <= 16
 gprodUp_max(gw3,s1,t2): gprodUp(gw3,s1,t2) <= 2984
 gprodDn_max(gw3,s1,t2): gprodDn(gw3,s1,t2) <= 16
 gprodUp_max(gw3,s1,t3): gprodUp(gw3,s1,t3) <= 2984
 gprodDn_max(gw3,s1,t3): gprodDn(gw3,s1,t3) <= 16
 gprodUp_max(gw3,s1,t4): gprodUp(gw3,s1,t4) <= 2955.71572872
 gprodDn_max(gw3,s1,t4): gprodDn(gw3,s1,t4) <= 44.28427127999998
 gprodUp_max(gw3,s2,t1): gprodUp(gw3,s2,t1) <= 2984
 gprodDn_max(gw3,s2,t1): gprodDn(gw3,s2,t1) <= 16
 gprodUp_max(gw3,s2,t2): gprodUp(gw3,s2,t2) <= 2984
 gprodDn_max(gw3,s2,t2): gprodDn(gw3,s2,t2) <= 16
 gprodUp_max(gw3,s2,t3): gprodUp(gw3,s2,t3) <= 2984
 gprodDn_max(gw3,s2,t3): gprodDn(gw3,s2,t3) <= 16
 gprodUp_max(gw3,s2,t4): gprodUp(gw3,s2,t4) <= 2955.71572872
 gprodDn_max(gw3,s2,t4): gprodDn(gw3,s2,t4) <= 44.28427127999998
 line_store_rt(('ng101','ng102'),s1,t1):
   - qin_sr_rt(('ng101','ng102'),s1,t1)
   + qout_sr_rt(('ng101','ng102'),s1,t1) = 0
 line_store_rt(('ng101','ng102'),s1,t2):
   - qin_sr_rt(('ng101','ng102'),s1,t2)
   + qout_sr_rt(('ng101','ng102'),s1,t2) = 0
 line_store_rt(('ng101','ng102'),s1,t3):
   - qin_sr_rt(('ng101','ng102'),s1,t3)
   + qout_sr_rt(('ng101','ng102'),s1,t3) = 0
 line_store_rt(('ng101','ng102'),s1,t4):
   - qin_sr_rt(('ng101','ng102'),s1,t4)
   + qout_sr_rt(('ng101','ng102'),s1,t4) = 0
 line_store_rt(('ng101','ng102'),s2,t1):
   - qin_sr_rt(('ng101','ng102'),s2,t1)
   + qout_sr_rt(('ng101','ng102'),s2,t1) = 0
 line_store_rt(('ng101','ng102'),s2,t2):
   - qin_sr_rt(('ng101','ng102'),s2,t2)
   + qout_sr_rt(('ng101','ng102'),s2,t2) = 0
 line_store_rt(('ng101','ng102'),s2,t3):
   - qin_sr_rt(('ng101','ng102'),s2,t3)
   + qout_sr_rt(('ng101','ng102'),s2,t3) = 0
 line_store_rt(('ng101','ng102'),s2,t4):
   - qin_sr_rt(('ng101','ng102'),s2,t4)
   + qout_sr_rt(('ng101','ng102'),s2,t4) = 0
 gas_shed_rt(ng101,s1,t1): gshed(ng101,s1,t1) <= 0
 gas_shed_rt(ng101,s1,t2): gshed(ng101,s1,t2) <= 0
 gas_shed_rt(ng101,s1,t3): gshed(ng101,s1,t3) <= 0
 gas_shed_rt(ng101,s1,t4): gshed(ng101,s1,t4) <= 0
 gas_shed_rt(ng102,s1,t1): gshed(ng102,s1,t1) <= 0
 gas_shed_rt(ng102,s1,t2): gshed(ng102,s1,t2) <= 0
 gas_shed_rt(ng102,s1,t3): gshed(ng102,s1,t3) <= 0
 gas_shed_rt(ng102,s1,t4): gshed(ng102,s1,t4) <= 0
 gas_shed_rt(ng101,s2,t1): gshed(ng101,s2,t1) <= 0
 gas_shed_rt(ng101,s2,t2): gshed(ng101,s2,t2) <= 0
 gas_shed_rt(ng101,s2,t3): gshed(ng101,s2,t3) <= 0
 gas_shed_rt(ng101,s2,t4): gshed(ng101,s2,t4) <= 0
 gas_shed_rt(ng102,s2,t1): gshed(ng102,s2,t1) <= 0
 gas_shed_rt(ng102,s2,t2): gshed(ng102,s2,t2) <= 0
 gas_shed_rt(ng102,s2,t3): gshed(ng102,s2,t3) <= 0
 gas_shed_rt(ng102,s2,t4): gshed(ng102,s2,t4) <= 0
Bounds
End
